outputs/case_114.model.txt
has_permission_to_concurrent_business = False
business_scope = False
report_preparation_days_after_fiscal_year_end = 0
user_rights_protection_level = 0
exclusive_4_1_2 = False
standard_template_level = 0
stock_company = False
days_after_board_approval_to_submission = 0
report_submitted_to_authority = True
company_type = False
company_type_restriction = True
annual_report_submission = True
penalty = False
contract_terms_include_mandatory_items = True
exclusive_business_requirement = True
report_announced_publicly = True
contract_terms_exclude_prohibited_items = True
contract_terms_compliance = True
financial_report_audited_or_approved = True